NAME : STSP_100-2over3.1193.tour
COMMENT : Length = 1193
COMMENT : Found by LKH-3 [Keld Helsgaun]
TYPE : TOUR
DIMENSION : 66
TOUR_SECTION
23
26
46
8
46
76
74
24
55
44
41
80
64
77
64
25
32
67
85
18
65
29
19
83
81
94
81
83
19
59
16
56
35
100
33
22
43
82
43
39
58
92
58
62
47
30
52
42
6
60
45
66
72
28
4
28
17
98
75
21
15
51
79
34
95
11
84
10
54
37
63
86
38
89
31
3
93
61
1
61
71
68
71
12
40
90
48
78
48
50
96
57
13
70
-1
EOF
